# AG options
options
irrigation_diversion 1 6
supplemental_well 6 1 
irrigation_well 6 1 
maxwells 6  
diversionlist -2 
welllist -2
wellirrlist -2
diversionirrlist -2
timeseries_well
timeseries_diversion
timeseries_diversionet
end
# AG time series
time series
well 5 105   
diversion 9 107      
diversionet 9 108
end
# AG segment list
segment list
9
end
# AG well list
well list
         1         6         4    -100.00
         1         6         5    -100.00
         1         7         4    -100.00
         1         7         5    -100.00
         1         8         4    -100.00
         1         8         5    -100.00
end
# AG stress period
stress period 1
IRRdiversion
1                         NUMIRRSEGSP       
9 6 0.0 0.0                       #SEGID NUMCELLSEG IRRPERIODSEG TRIGGERFACTSEG 
6 4 0.7 0.16667           IRRROW IRRCOL EFF_FACT FIELD_FACT
6 5 0.7 0.16667 
7 4 0.7 0.16667 
7 5 0.7 0.16667 
8 4 0.7 0.16667 
8 5 0.7 0.16667 
IRRWELL
6
1 1  0.0 0.0                     #IRRWELLLID NUMCELLWELL IRRPERIODWELL TRIGGERPERIODWELL 
6 4 0.7 1.0               IRRROW IRRCOL EFF_FACT FIELD_FACT 
2 1
6 5 0.7 1.0 
3 1
7 4 0.7 1.0 
4 1
7 5 0.7 1.0 
5 1
8 4 0.7 1.0 
6 1
8 5 0.7 1.0 
SUPWELL
6                        NUMSUPWELLLSP
1 1                      SUPWELLLNUM   NUMSEGWELL
9 1.0 1.0                  #SEGWELLID FACSUP FACSUPMAX             
2 1 
9 1.0 1.0 
3 1 
9 1.0 1.0 
4 1 
9 1.0 1.0 
5 1 
9 1.0 1.0 
6 1 
9 1.0 1.0 
end